n_res = 4;
rcap = [22, 23, 26, 55];
rtype = [1, 1, 2, 2];
n_tasks = 16;
modes = [ {1}, {2}, {3}, {4}, {5}, {6}, {7}, {8}, {9}, {10}, {11}, {12}, {13}, {14}, {15}, {16} ];
succ = [ {6, 7, 9}, {4, 12}, {5, 8, 13}, {5, 7, 10}, {9, 16}, {11, 16}, {13}, {9, 10, 15}, {14}, {14, 16}, {12, 13}, {15}, {14, 15}, {}, {}, {} ];
n_opt = 16;
dur = [2, 10, 7, 6, 8, 4, 3, 4, 2, 5, 6, 6, 3, 7, 9, 3];
rreq = [|  9,  7,  5,  9,  4,  7,  6,  6,  7,  6, 10, 10,  6,  6,  5,  1
        |  6,  2, 10,  1, 10,  3,  9,  8,  3,  3,  2,  5,  3,  5,  9,  1
        |  2,  0,  0,  0,  0,  0,  0,  0,  0,  3,  8,  3, 10,  0,  0,  0
        |  0,  3,  8,  4,  4,  1, 10,  4,  7,  0,  0,  0,  0,  3,  7,  4 |];
